!    doubly substituted triazolium cation, from unpublished
!    research by M. W. Schmidt (2005).
!    the MCSCF gradient with the 6-31++G(d,p) basis has 202 AOs.
!
!    MCSCF has the FINAL E= -585.4208823991, 23 iters, RMS grad= 0.035184652
!
!    This computation took 2058 seconds on a machine installed at ISU.
!    disk requirement is about 12 MBytes.
!
 $contrl scftyp=mcscf runtyp=gradient nzvar=30 icharg=+1 $end
 $system mwords=5 memddi=0 $end
 $basis  gbasis=n31 ngauss=6 ndfunc=1 npfunc=1 diffsp=.t. diffs=.t. $end
 $guess  guess=moread norb=202 norder=1
         iorder(25)=26,27,28,29,30,31,32,33,34,  25,35,36,37,39,  38 $end
 $trans  dirtrf=.true. $end 
 $mcscf  acurcy=1d-6 $end 
 $det ncore = 33 nact=5 nels=6 $end
 $zmat   izmat(1)=1,1,2,  1,2,3,  1,3,4,  1,4,5,  1,5,1,  
                  2,2,3,4,  2,4,5,1,  3,1,2,3,4,   3,4,5,1,2
            1,3,6,  2,6,3,2,  3,6,3,2,1,
            1,5,7,  2,7,5,1,  3,7,5,1,2,
            1,8,1,  2,8,1,2,  3,8,1,2,3,
            1,9,8, 2,9,8,1, 3,9,8,1,2,  1,10,8,  2,10,8,1,  3,10,8,1,2,
            1,11,4,  2,11,4,3,  3,11,4,3,2  
            1,11,12,  2,12,11,4,  4,12,11,3,5  $end
 $data
1-NF2,4-cyano-1,2,4-triazolium ion...MP2/6-31++G(d,p) geometry
Cs

N           7.0    .6276827108    .1135173087    .0000000000
N           7.0   -.7197954777    .0135796606    .0000000000
C           6.0  -1.1137985684   1.2721378108    .0000000000
N           7.0   -.0174462602   2.1275879754    .0000000000
C           6.0   1.0958991612   1.3611552266    .0000000000
H           1.0  -2.1380803969   1.6121505226    .0000000000
H           1.0   2.1280654965   1.6804345388    .0000000000
N           7.0   1.5141451241  -1.0150413991    .0000000000
F           9.0   1.0699884795  -1.7522991794   1.0855943184
C           6.0   -.0523280592   3.4995367309    .0000000000
N           7.0   -.1017707368   4.6818127169    .0000000000
 $end 

     the starting orbitals have MVOQ=4 virtuals...

--- CLOSED SHELL ORBITALS --- GENERATED AT Thu Mar  3 09:36:54 2005
1-NF2,4-cyano-1,2,4-triazolium ion...E(RHF)= -585.3647805573
 $VEC
 1  1-0.00000000E+00-0.00000000E+00-0.00000000E+00-0.00000000E+00 4.08254416E-05
 1  2-0.00000000E+00-0.00000000E+00-0.00000000E+00 5.15086947E-05-0.00000000E+00
 1  3-0.00000000E+00-0.00000000E+00-7.14911865E-05-0.00000000E+00-0.00000000E+00
 1  4-0.00000000E+00-0.00000000E+00 3.42602445E-05-6.78954924E-05-0.00000000E+00
 1  5-0.00000000E+00-0.00000000E+00-0.00000000E+00-1.68999226E-06-0.00000000E+00
 1  6-0.00000000E+00-0.00000000E+00-2.09157985E-05-0.00000000E+00-0.00000000E+00
 1  7-0.00000000E+00-2.26171703E-04-0.00000000E+00-0.00000000E+00-0.00000000E+00
 1  8-0.00000000E+00-3.31993689E-06 4.27848868E-06-0.00000000E+00-0.00000000E+00
 1  9-0.00000000E+00-0.00000000E+00-1.25186026E-05-0.00000000E+00-0.00000000E+00
 1 10-0.00000000E+00 7.89577471E-05-0.00000000E+00-0.00000000E+00-0.00000000E+00
 1 11 1.27726899E-04-0.00000000E+00-0.00000000E+00-0.00000000E+00-0.00000000E+00
 1 12 2.25890288E-06-2.70516389E-06-0.00000000E+00-0.00000000E+00-0.00000000E+00
 1 13-0.00000000E+00 4.34976054E-06-0.00000000E+00-0.00000000E+00-0.00000000E+00
 1 14-4.07748414E-05-0.00000000E+00-0.00000000E+00-0.00000000E+00-1.69899922E-05
 1 15-0.00000000E+00-0.00000000E+00-0.00000000E+00-0.00000000E+00-7.73383569E-08
 1 16 3.37250387E-06-0.00000000E+00-0.00000000E+00-0.00000000E+00-0.00000000E+00
 1 17-1.14564337E-05-0.00000000E+00-0.00000000E+00-0.00000000E+00 7.26615899E-05
 1 18-0.00000000E+00-0.00000000E+00-0.00000000E+00 1.12107916E-04-0.00000000E+00
 1 19-0.00000000E+00-0.00000000E+00-0.00000000E+00-5.90249232E-06-9.07426642E-06
 1 20-0.00000000E+00-0.00000000E+00-0.00000000E+00-0.00000000E+00-0.00000000E+00
 1 21-6.55656727E-06-0.00000000E+00-0.00000000E+00-0.00000000E+00-0.00000000E+00
 1 22-0.00000000E+00-3.21162796E-06-0.00000000E+00-0.00000000E+00-0.00000000E+00
 1 23-0.00000000E+00-4.57713648E-04-0.00000000E+00-0.00000000E+00-0.00000000E+00
 1 24-8.32722633E-04-0.00000000E+00-0.00000000E+00-0.00000000E+00-4.11418309E-04
 1 25-0.00000000E+00-0.00000000E+00-0.00000000E+00-0.00000000E+00 2.72068976E-04
 1 26 3.84695853E-04 7.03056515E-01 1.17724402E-02 2.15013732E-04 4.19727132E-04
 1 27 5.95808796E-04 8.08347241E-03-2.77977421E-04-4.52020226E-04-5.77156155E-04
 1 28-2.04722098E-03-2.32818826E-05-1.59582597E-04-2.05251995E-04-3.76264006E-03
 1 29-3.87580596E-03-3.97451374E-03-1.14130274E-04-1.47463183E-04-2.50528475E-04
 1 30-7.03056515E-01-1.17724402E-02-2.15013732E-04-4.19727132E-04 5.95808796E-04
 1 31-8.08347241E-03 2.77977421E-04 4.52020226E-04-5.77156155E-04 2.04722098E-03
 1 32 2.32818826E-05 1.59582597E-04-2.05251995E-04 3.76264006E-03 3.87580596E-03
 1 33 3.97451374E-03 1.14130274E-04-1.47463183E-04-2.50528475E-04-0.00000000E+00
 1 34-0.00000000E+00-0.00000000E+00-0.00000000E+00 8.65738961E-07-0.00000000E+00
 1 35-0.00000000E+00-0.00000000E+00 1.35751958E-05-0.00000000E+00-0.00000000E+00
 1 36-0.00000000E+00-1.20786628E-04-0.00000000E+00-0.00000000E+00-0.00000000E+00
 1 37-0.00000000E+00-1.50702602E-09-1.16771007E-06-0.00000000E+00-0.00000000E+00
 1 38-0.00000000E+00-0.00000000E+00 2.29570765E-06-0.00000000E+00-0.00000000E+00
 1 39-0.00000000E+00-1.30142419E-05-0.00000000E+00-0.00000000E+00-0.00000000E+00
 1 40 6.02193090E-05-0.00000000E+00-0.00000000E+00-0.00000000E+00-0.00000000E+00
 1 41 2.32301404E-08 4.39500309E-07
 2  1 9.62054497E-06 1.46746435E-04-4.07895087E-06 7.07424308E-06 0.00000000E+00
 2  2-1.06784866E-03-7.54886518E-04 1.54867883E-03 0.00000000E+00-1.96132153E-03
 2  3-1.84516794E-03-9.55117414E-04 0.00000000E+00 3.53357846E-05-2.07413118E-04
 2  4-3.73985179E-06 5.24496253E-05 0.00000000E+00 0.00000000E+00 1.60188029E-05
 2  5 4.00893198E-05 2.53023872E-05-4.49646437E-05 0.00000000E+00-1.61857105E-04
 2  6-3.29487796E-04 2.57327871E-04 0.00000000E+00-2.39408965E-03-5.46038362E-04
 2  7 6.65972060E-04 0.00000000E+00 6.45658330E-06 8.26095892E-05 5.60856622E-05
 2  8-4.64213731E-05 0.00000000E+00 0.00000000E+00 1.50936497E-05 9.21567778E-05
 2  9 4.22103134E-06 2.50745021E-05 0.00000000E+00-6.39165769E-04-2.91813806E-04
 2 10 3.83457931E-04 0.00000000E+00-2.64146549E-04-4.17169363E-05-3.37896493E-04
 2 11 0.00000000E+00-4.91955849E-06-3.68279510E-05 3.71156777E-05 3.03169653E-05
 2 12 0.00000000E+00 0.00000000E+00-1.48249023E-05-5.73773473E-05-1.23465515E-05
 2 13-1.35663509E-05 0.00000000E+00 1.02703523E-03 2.63774520E-04 9.77023685E-05
 2 14 0.00000000E+00 1.62865016E-03 5.87438795E-04-4.61512057E-04 0.00000000E+00
 2 15-2.38449352E-05-3.49916336E-05-2.28847981E-05-4.41066447E-06 0.00000000E+00
 2 16 0.00000000E+00-1.70720760E-06-2.53562689E-05-5.83425273E-06-2.19261225E-05
 2 17 0.00000000E+00-8.26192567E-04 8.25588003E-04-4.36398976E-05 0.00000000E+00
 2 18-7.07750557E-04 5.51541632E-04 7.92824630E-06 0.00000000E+00-3.60139655E-06
 2 19 4.72275350E-05 5.24955707E-06 1.28309398E-05 0.00000000E+00 0.00000000E+00
 2 20-2.82318178E-06-1.20617992E-04-1.58523995E-05 4.25482533E-06-1.06807554E-05
 2 21 0.00000000E+00-4.82175444E-05-1.87126436E-04-9.10946458E-05-5.57376563E-07
 2 22 1.44854823E-05 0.00000000E+00-1.49428297E-04-5.02391525E-04-1.58257903E-04
 2 23-3.34407004E-04 0.00000000E+00 4.16814319E-03-2.04921819E-03-9.07423619E-04
 2 24 0.00000000E+00 8.37563127E-03-2.22038583E-03 5.88258173E-04 0.00000000E+00
 2 25-2.10152285E-04 4.42864011E-05 3.30931357E-04 2.14177524E-04 0.00000000E+00
 2 26 0.00000000E+00 7.03100084E-01 1.21006440E-02 2.21057917E-04 4.58103538E-04
 2 27 6.44114299E-04 6.80698484E-03-3.24005035E-04-7.94152274E-04-1.39266749E-03
 2 28-4.24576688E-03 1.48206877E-04-2.85056926E-04-2.73574269E-04-3.56151614E-03
 2 29-3.68215231E-03-4.05828709E-03-9.43145596E-05-1.41441249E-04-3.31450656E-04
 2 30 7.03100084E-01 1.21006440E-02 2.21057917E-04 4.58103538E-04-6.44114299E-04
 2 31 6.80698484E-03-3.24005035E-04-7.94152274E-04 1.39266749E-03-4.24576688E-03
 2 32 1.48206877E-04-2.85056926E-04 2.73574269E-04-3.56151614E-03-3.68215231E-03
 2 33-4.05828709E-03-9.43145596E-05 1.41441249E-04 3.31450656E-04 5.75590437E-06
 2 34 2.52176516E-05 5.56877636E-06 2.52148957E-06 0.00000000E+00-1.58079901E-04
 2 35-1.17117191E-04 5.98069370E-04 0.00000000E+00 8.25337965E-04-3.17248776E-04
 2 36-2.35806341E-04 0.00000000E+00 1.17926991E-05 1.08006811E-06 9.70178087E-06
 2 37 7.01666867E-06 0.00000000E+00 0.00000000E+00 2.26054486E-06 1.45893993E-05
 2 38 2.46502135E-06 1.46696216E-06 0.00000000E+00-3.46180769E-04-2.79414046E-06
 2 39 1.28394692E-04 0.00000000E+00-2.93298453E-04 9.00630483E-05 1.26146960E-04
 2 40 0.00000000E+00 2.04037405E-06-5.15652592E-07 1.51597611E-06-1.77793987E-06
 2 41 0.00000000E+00 0.00000000E+00
 3  1 3.11421129E-03 1.57245063E-04 1.47451227E-04-1.31014359E-04 0.00000000E+00
 3  2 3.10946265E-03 8.38023876E-04-3.47370555E-03 0.00000000E+00 1.12830894E-02
 3  3 6.02416180E-03-1.11157608E-02 0.00000000E+00-2.14653646E-04-2.03761147E-04
 3  4-1.51573591E-04 1.74131269E-04 0.00000000E+00 0.00000000E+00-8.79146414E-05
 3  5-9.75654409E-05-9.44201302E-05 7.45477037E-05 0.00000000E+00-2.60660703E-04
 3  6-6.27208895E-06-1.43255467E-04 0.00000000E+00-1.87299316E-03-1.66123592E-03
 3  7 5.46933507E-04 0.00000000E+00-8.95243333E-05-1.22616898E-04-1.31859215E-04
 3  8 1.38295262E-04 0.00000000E+00 0.00000000E+00-4.42713545E-05-2.35132786E-04
 3  9-3.01283591E-05-1.99173450E-05 0.00000000E+00 1.60252861E-03 1.14871383E-03
 3 10-5.26152749E-04 0.00000000E+00 2.64965549E-03 1.98749271E-03 7.60415968E-04
 3 11 0.00000000E+00-1.83306000E-05 5.83675774E-05-9.78141679E-05-2.31397904E-05
 3 12 0.00000000E+00 0.00000000E+00 3.68310098E-05 1.02942527E-04 1.35137839E-06
 3 13 3.73740742E-05 0.00000000E+00-1.78725437E-03 7.48976746E-06 1.64848534E-05
 3 14 0.00000000E+00 5.81324517E-03 1.21196778E-03-2.82804499E-03 0.00000000E+00
 3 15 5.29165683E-05 1.33120850E-05 2.47590425E-05-6.07863817E-06 0.00000000E+00
 3 16 0.00000000E+00-1.22337331E-05-8.05129113E-05-3.72913348E-05 4.99483805E-06
 3 17 0.00000000E+00 2.21818911E-03-1.28755543E-03-5.50179421E-04 0.00000000E+00
 3 18-1.03044538E-03 1.02572303E-03-1.72889406E-03 0.00000000E+00 8.84934145E-05
 3 19-5.46946908E-05-6.16600259E-05 9.69429760E-05 0.00000000E+00 0.00000000E+00
 3 20 3.41689870E-05 3.64949811E-04 9.40297143E-04 5.90808073E-06 1.15268691E-05
 3 21 0.00000000E+00 3.08401583E-06 3.58357677E-04-2.70862525E-04 4.60548250E-05
 3 22 1.12901949E-05 0.00000000E+00 9.95748512E-01 2.41111825E-02-2.95777304E-03
 3 23-6.96102932E-04 0.00000000E+00-9.70239893E-03 5.10873381E-03 3.95540213E-04
 3 24 0.00000000E+00-2.22005215E-02 3.24108024E-03-3.20965405E-03 0.00000000E+00
 3 25-1.99371027E-03-2.27768403E-03-2.23373666E-03 1.22297677E-04 0.00000000E+00
 3 26 0.00000000E+00-1.23236179E-04-2.02173198E-04 1.15044985E-04 1.55251515E-04
 3 27 1.71357095E-04 2.27166437E-03-1.21162018E-04 3.48510783E-04 8.23969935E-04
 3 28 2.49581479E-03 3.15398889E-04 3.14817600E-04 6.79918149E-04-2.36165316E-04
 3 29-2.98388727E-04-2.91402519E-04-9.58242062E-05-2.18781565E-04-2.05699674E-04
 3 30-1.23236179E-04-2.02173198E-04 1.15044985E-04 1.55251515E-04-1.71357095E-04
 3 31 2.27166437E-03-1.21162018E-04 3.48510783E-04-8.23969935E-04 2.49581479E-03
 3 32 3.15398889E-04 3.14817600E-04-6.79918149E-04-2.36165316E-04-2.98388727E-04
 3 33-2.91402519E-04-9.58242062E-05 2.18781565E-04 2.05699674E-04-8.69438115E-07
 3 34-1.74008428E-05 1.39796812E-05-1.87031325E-05 0.00000000E+00 1.86308582E-04
 3 35-9.88024782E-05-5.47342107E-04 0.00000000E+00-5.11877109E-04 7.59188995E-04
 3 36 4.65257422E-04 0.00000000E+00-2.09481144E-06 3.94745628E-05-9.74542022E-06
 3 37 2.44478944E-07 0.00000000E+00 0.00000000E+00-1.01536690E-06-1.15804850E-05
 3 38-8.34534175E-06 6.86610530E-06 0.00000000E+00 2.68446190E-04 6.34123935E-05
 3 39-8.89980207E-05 0.00000000E+00 7.47684131E-04-2.60245945E-04-4.59986654E-04
 3 40 0.00000000E+00 6.36803511E-06-9.86116968E-06 3.14819593E-06-3.90909065E-06
 3 41 0.00000000E+00 0.00000000E+00
 4  1 9.95104148E-01 2.52951707E-02-2.79532008E-05 1.70558092E-05 0.00000000E+00
 4  2-5.57825622E-03 2.65926333E-04-2.76720786E-04 0.00000000E+00 2.05507642E-02
 4  3-4.90360626E-03-5.67926860E-03 0.00000000E+00-3.18161218E-03-3.12790599E-03
 4  4-3.10700043E-03 3.78990059E-05 0.00000000E+00 0.00000000E+00 3.75567755E-03
 4  5 2.26679183E-04 2.78857972E-04-1.04320147E-05 0.00000000E+00 1.20650576E-03
 4  6 4.91215937E-04 3.46984175E-04 0.00000000E+00-1.52267416E-02-5.00211497E-03
 4  7 3.49595307E-04 0.00000000E+00-1.24703609E-04-4.86091414E-05-4.00493319E-05
 4  8-1.42147948E-05 0.00000000E+00 0.00000000E+00-1.63643194E-05-1.44644397E-04
 4  9-1.24245252E-05 7.08981842E-05 0.00000000E+00 2.91677724E-04-7.75048967E-05
 4 10 1.33329859E-04 0.00000000E+00 2.58026669E-03 1.67150615E-03 5.64637586E-04
 4 11 0.00000000E+00 6.76429885E-05-1.51537894E-05-3.08249957E-05-2.37861448E-05
 4 12 0.00000000E+00 0.00000000E+00-1.02383500E-03 1.51705426E-06-2.00838217E-05
 4 13 1.97742209E-05 0.00000000E+00-1.14362273E-03-1.23365163E-04 1.70673417E-04
 4 14 0.00000000E+00 1.10955554E-03 7.85507300E-04-4.95290403E-04 0.00000000E+00
 4 15 3.51748626E-05 9.34873658E-05 1.84706235E-05 6.14996234E-06 0.00000000E+00
 4 16 0.00000000E+00 3.81443497E-05 1.80371563E-04-5.86934362E-05-2.09848597E-04
 4 17 0.00000000E+00 2.02821829E-03-1.01075818E-03-8.47862222E-04 0.00000000E+00
 4 18-3.47407154E-03 2.40249619E-03 9.43078379E-05 0.00000000E+00-7.43145042E-05
 4 19-1.17058953E-04-4.12272409E-05-4.95299877E-05 0.00000000E+00 0.00000000E+00
 4 20-3.34159931E-05-1.17693375E-04 4.52222829E-04-2.80200803E-05 2.10678097E-06
 4 21 0.00000000E+00-1.00500399E-05 5.16117491E-04-1.01725234E-03-1.40011242E-05
 4 22 5.65282571E-05 0.00000000E+00-3.29259896E-03 3.13346390E-05-1.56608497E-04
 4 23 2.29169235E-04 0.00000000E+00 8.97625431E-04-3.70066209E-04-1.14043312E-05
 4 24 0.00000000E+00-3.57337055E-03 8.22173084E-04-7.24611217E-05 0.00000000E+00
 4 25-1.00821070E-04-8.55485317E-05-3.45739945E-05 3.75422999E-05 0.00000000E+00
 4 26 0.00000000E+00-2.18381278E-05-1.51291772E-04 1.14184948E-05-4.91320768E-05
 4 27-1.08472244E-05 3.79772249E-04-2.37969939E-05 1.65136287E-05-1.06591222E-04
 4 28-1.51912374E-03 2.35508220E-04-5.97301862E-04-1.25295742E-04-1.19308697E-04
 4 29-7.53398858E-05-1.40067020E-04-2.40551801E-05 1.21977374E-06 2.02618345E-05
 4 30-2.18381278E-05-1.51291772E-04 1.14184948E-05-4.91320768E-05 1.08472244E-05
 4 31 3.79772249E-04-2.37969939E-05 1.65136287E-05 1.06591222E-04-1.51912374E-03
 4 32 2.35508220E-04-5.97301862E-04 1.25295742E-04-1.19308697E-04-7.53398858E-05
 4 33-1.40067020E-04-2.40551801E-05-1.21977374E-06-2.02618345E-05-1.33935543E-05
 4 34-3.88659406E-05-3.30516532E-06 6.02737632E-06 0.00000000E+00-2.56727849E-04
 4 35 7.64082009E-05-7.53643514E-04 0.00000000E+00 8.31979960E-04 2.21418709E-04
 4 36-8.14825674E-04 0.00000000E+00-1.45576973E-05-5.95998964E-05-1.71778788E-05
 4 37-4.18992938E-06 0.00000000E+00 0.00000000E+00-9.63494089E-06-4.73670346E-05
 4 38 7.08112897E-06-9.73686749E-06 0.00000000E+00 7.44207385E-04-1.97326852E-05
 4 39-3.22073956E-04 0.00000000E+00 2.74634643E-04-6.27519563E-05 2.26659486E-04
 4 40 0.00000000E+00-2.74040955E-05 1.18182760E-05-2.57168666E-05 3.83270532E-06
 4 41 0.00000000E+00 0.00000000E+00
 5  1 1.07640934E-03 8.40822669E-05-3.99487470E-05 2.45384541E-05-0.00000000E+00
 5  2-9.55474963E-04 3.43822041E-04-1.57029826E-03-0.00000000E+00-4.70131398E-04
 5  3 3.54418557E-03-4.01227679E-03-0.00000000E+00 6.22665647E-05 2.71171776E-05
 5  4 3.51002385E-05-6.96942618E-05-0.00000000E+00-0.00000000E+00-1.76527344E-04
 5  5 4.28217159E-05 3.25716568E-05-3.90525909E-05-0.00000000E+00-4.76589361E-04
 5  6-9.18654441E-05-1.83333581E-04-0.00000000E+00 2.80409714E-03 1.45285807E-04
 5  7 5.95602631E-04-0.00000000E+00 4.71769657E-05-1.96552213E-05 3.31216616E-05
 5  8 3.11904917E-05-0.00000000E+00-0.00000000E+00 2.92782499E-05 2.06335099E-04
 5  9 1.44436745E-04 2.25203632E-04-0.00000000E+00 9.94260296E-04 1.04805809E-03
 5 10-6.44857136E-05-0.00000000E+00-1.75942363E-03 2.42018691E-04-1.22838951E-04
 5 11-0.00000000E+00-1.24837448E-04 3.85798005E-05-3.51831379E-05-1.48872837E-05
 5 12-0.00000000E+00-0.00000000E+00 9.95107736E-01 2.57347181E-02 1.74561173E-04
 5 13 2.71976534E-04-0.00000000E+00-9.10361566E-03-3.17263179E-04-1.76823485E-03
 5 14-0.00000000E+00 2.61677647E-03 3.65956039E-04-2.37843707E-03-0.00000000E+00
 5 15-3.13378671E-03-3.05027883E-03-3.10313346E-03-3.08252332E-05-0.00000000E+00
 5 16-0.00000000E+00 3.74419032E-05 2.25546660E-04-1.48420282E-04 1.60063442E-04
 5 17-0.00000000E+00 2.68363423E-03-1.75329609E-03-3.23870678E-04-0.00000000E+00
 5 18-7.34940291E-04-4.70096896E-04-3.15004395E-04-0.00000000E+00-1.97304069E-04
 5 19 3.10648880E-05-4.19093312E-05 5.86086604E-05-0.00000000E+00-0.00000000E+00
 5 20 3.23693637E-05 3.06800330E-04 6.85554936E-04-1.30219859E-05-5.67026416E-05
 5 21-0.00000000E+00 3.67690013E-05 5.27519562E-04 6.89964713E-04 9.67741330E-06
 5 22-6.15088263E-05-0.00000000E+00 5.00192357E-06 1.44182821E-04-2.17414751E-06
 5 23-2.51239689E-05-0.00000000E+00-1.17586104E-03 5.83123161E-04-5.79742262E-05
 5 24-0.00000000E+00-5.79431666E-03 7.69106411E-04-1.01728101E-03-0.00000000E+00
 5 25 2.39155529E-06 1.12315089E-05 1.43185630E-05 2.65766832E-05-0.00000000E+00
 5 26-0.00000000E+00-1.01876683E-05-6.65712294E-05-5.33682388E-06 2.26069858E-06
 5 27-1.11691780E-05 3.15141877E-04 3.68996858E-05 4.01103332E-05 1.47764970E-04
 5 28 1.20942018E-04-1.91936512E-06-2.30239625E-06-4.14756711E-07-4.88993601E-05
 5 29-4.38018344E-05-2.64447392E-06 8.92006084E-06 4.82141112E-06 8.78769492E-06
 5 30-1.01876683E-05-6.65712294E-05-5.33682388E-06 2.26069858E-06 1.11691780E-05
 5 31 3.15141877E-04 3.68996858E-05 4.01103332E-05-1.47764970E-04 1.20942018E-04
 5 32-1.91936512E-06-2.30239625E-06 4.14756711E-07-4.88993601E-05-4.38018344E-05
 5 33-2.64447392E-06 8.92006084E-06-4.82141112E-06-8.78769492E-06-1.62167305E-05
 5 34 2.35944583E-04 2.06155503E-05-3.10885837E-04-0.00000000E+00-4.29718912E-04
 5 35 2.90892217E-04-6.95867912E-03-0.00000000E+00-5.20005554E-04-2.21217296E-05
 5 36-5.88656956E-04-0.00000000E+00-8.40780782E-05-4.56718007E-04-5.56366121E-05
 5 37-4.00063276E-07-0.00000000E+00-0.00000000E+00-1.42610694E-04-2.53683537E-04
 5 38 9.45200006E-06-1.24481212E-04-0.00000000E+00 5.53183408E-03 8.09935486E-05
 5 39-2.18052022E-03-0.00000000E+00 2.75797693E-03 2.71451129E-05-6.22219232E-04
 5 40-0.00000000E+00-1.44617442E-04 8.63218692E-05-1.52407618E-04-1.44262064E-05
 5 41-0.00000000E+00-0.00000000E+00
 6  1-3.90812217E-03 2.66456427E-04-1.88838787E-04 3.04387680E-05-0.00000000E+00
 6  2 2.08914686E-03-6.08307322E-04-8.50893227E-05-0.00000000E+00-8.62578604E-03
 6  3-5.71041189E-03 1.12000352E-02-0.00000000E+00-6.95991507E-04-2.32839812E-05
 6  4 2.14691526E-05-2.80477665E-05-0.00000000E+00-0.00000000E+00 9.95338228E-01
 6  5 2.46817422E-02 1.72257099E-03 2.06661267E-03-0.00000000E+00-6.50951275E-03
 6  6-1.85298344E-03-2.66694450E-03-0.00000000E+00 3.61973073E-03 3.25113015E-03
 6  7 3.08573978E-04-0.00000000E+00-2.67184897E-03-2.44042846E-03-2.90316397E-03
 6  8-4.57511477E-06-0.00000000E+00-0.00000000E+00 2.35334027E-05 3.55864346E-04
 6  9 8.82200436E-06-4.56230386E-05-0.00000000E+00 3.37193304E-03 1.47798296E-03
 6 10-1.16069370E-03-0.00000000E+00-3.09603310E-03-2.38268181E-03-2.03795656E-03
 6 11-0.00000000E+00-1.96612570E-04-5.55934806E-04-6.32488758E-05 2.37903112E-04
 6 12-0.00000000E+00-0.00000000E+00 2.14064284E-04-1.79183430E-05 3.94521049E-05
 6 13 9.92419527E-05-0.00000000E+00-1.75800683E-03 2.45901768E-04-7.32373132E-04
 6 14-0.00000000E+00-1.00520724E-02-1.57091660E-03 5.12967397E-03-0.00000000E+00
 6 15 1.02120829E-05 8.41299679E-05-4.25154304E-05-2.65750159E-05-0.00000000E+00
 6 16-0.00000000E+00-1.45407910E-05-1.66068038E-04 4.49667606E-05 3.43537073E-05
 6 17-0.00000000E+00-1.01489042E-04 4.03566268E-04 1.84544296E-04-0.00000000E+00
 6 18 7.96357490E-04 4.72793837E-04-1.66562216E-04-0.00000000E+00 3.52622524E-05
 6 19 5.54485826E-05-4.96487798E-05-9.32657213E-06-0.00000000E+00-0.00000000E+00
 6 20 3.71124467E-05 5.99877574E-04-1.05105851E-03 7.13249493E-05 8.25187890E-05
 6 21-0.00000000E+00-3.19807364E-05-1.38270815E-04-6.59132654E-04 1.26516505E-05
 6 22 2.39127800E-06-0.00000000E+00 6.29315620E-05-2.84896165E-05 4.77229829E-05
 6 23-2.97885929E-05-0.00000000E+00 5.33569889E-05 9.29341010E-05 1.83073825E-04
 6 24-0.00000000E+00 1.46412281E-02-2.41598778E-03 2.31704463E-03-0.00000000E+00
 6 25-6.11196095E-05 5.90712870E-05-4.69078218E-05 6.75136364E-06-0.00000000E+00
 6 26-0.00000000E+00-4.45292639E-06-2.51470507E-05 9.09746133E-07 6.06466023E-06
 6 27-2.90125310E-06 1.38857475E-04 1.66517341E-05-2.49141373E-05 3.49260836E-05
 6 28 1.65967942E-05-7.82338157E-05 1.15595327E-04-1.78575834E-05-1.50386567E-05
 6 29-3.58159770E-05-2.96537179E-06 1.81381542E-05 1.51942555E-08-3.41569302E-06
 6 30-4.45292639E-06-2.51470507E-05 9.09746133E-07 6.06466023E-06 2.90125310E-06
 6 31 1.38857475E-04 1.66517341E-05-2.49141373E-05-3.49260836E-05 1.65967942E-05
 6 32-7.82338157E-05 1.15595327E-04 1.78575834E-05-1.50386567E-05-3.58159770E-05
 6 33-2.96537179E-06 1.81381542E-05-1.51942555E-08 3.41569302E-06-2.10371066E-05
 6 34-7.89876369E-05-8.64395361E-06 2.13280112E-06-0.00000000E+00-2.05290003E-04
 6 35 9.57360253E-05-2.54066950E-03-0.00000000E+00 5.19595628E-03-4.33359851E-04
 6 36-2.49106445E-03-0.00000000E+00-2.91643599E-05-4.35307059E-05-2.78215207E-05
 6 37 7.60451573E-06-0.00000000E+00-0.00000000E+00-4.10642703E-05-1.44721384E-04
 6 38-3.91147082E-06-1.00817438E-05-0.00000000E+00 2.20780745E-03 4.79673857E-05
 6 39-7.65366098E-04-0.00000000E+00-1.23391906E-03 1.77014285E-04 1.04761974E-03
 6 40-0.00000000E+00-6.67175564E-05-2.37235986E-05-7.01755516E-05-8.89255144E-06
 6 41-0.00000000E+00-0.00000000E+00
 7  1-1.80297518E-05-9.74735508E-05 1.92211641E-05-1.26785749E-05 0.00000000E+00
 7  2 2.99439371E-04-2.77019968E-04 3.51341771E-04 0.00000000E+00 2.95557018E-03
 7  3 4.39217421E-03-8.59149596E-03 0.00000000E+00-1.00304299E-05 3.66997272E-05
 7  4-5.68908216E-05-1.75072030E-05 0.00000000E+00 0.00000000E+00-1.38142104E-05
 7  5-9.30603236E-05-6.92434439E-06-1.94923354E-05 0.00000000E+00 2.57389649E-04
 7  6-1.40222027E-04 1.51742971E-04 0.00000000E+00 2.91966993E-05-6.31197898E-04
 7  7 4.46852043E-04 0.00000000E+00-4.78238982E-05 3.65336456E-06-6.03895194E-05
 7  8 2.44837564E-06 0.00000000E+00 0.00000000E+00 1.15904458E-05 6.97619113E-05
 7  9 2.95924007E-05 5.96323638E-06 0.00000000E+00 1.69183553E-04 7.26561251E-04
 7 10 9.60830033E-05 0.00000000E+00-4.42115909E-04 6.73415867E-04 2.35891929E-04
 7 11 0.00000000E+00 3.70038138E-06-1.61306481E-05 9.63700401E-06 5.50184297E-06
 7 12 0.00000000E+00 0.00000000E+00 3.61665231E-05-3.64914769E-04-1.09130342E-05
 7 13 7.38896023E-05 0.00000000E+00 5.04768146E-03-1.59382737E-05 4.38482782E-03
 7 14 0.00000000E+00 8.21502152E-03 6.90011683E-04-3.63799263E-03 0.00000000E+00
 7 15-1.72866326E-04 5.83412540E-04-1.36862992E-04-1.91471269E-05 0.00000000E+00
 7 16 0.00000000E+00-7.02341050E-06 6.27454192E-06-1.74519835E-05-1.19823261E-05
 7 17 0.00000000E+00 6.09297888E-04-5.76165521E-04 3.04204426E-05 0.00000000E+00
 7 18 1.93164174E-03-1.16755474E-03 7.31031244E-04 0.00000000E+00-3.99653087E-05
 7 19-4.79423961E-05-1.91221913E-05-1.38896039E-05 0.00000000E+00 0.00000000E+00
 7 20 2.80616404E-05 3.20629628E-04 7.00453313E-04 1.63661138E-05-9.85504674E-06
 7 21 0.00000000E+00 9.48846721E-06 3.24852024E-04 6.95130911E-04-2.30226726E-05
 7 22-1.21153139E-05 0.00000000E+00-4.39653486E-06-1.71173558E-05-2.97524925E-06
 7 23 2.46550332E-06 0.00000000E+00 1.78467677E-04-5.96204941E-05 2.77331229E-05
 7 24 0.00000000E+00-1.04710408E-02 1.91050546E-03-1.37110561E-03 0.00000000E+00
 7 25-1.68824842E-05-2.40226411E-06-8.77090253E-06 2.38684708E-06 0.00000000E+00
 7 26 0.00000000E+00 3.71121640E-06 2.15746745E-05 6.11434888E-07-3.48418831E-06
 7 27 2.09375356E-06-9.41918359E-05-4.38563775E-06 7.53054948E-06-2.50188622E-05
 7 28-2.78603135E-05 1.05640713E-04-1.86600388E-04 2.84634864E-05 1.26109919E-05
 7 29 1.75422185E-05 9.07330522E-06-5.97563753E-06 2.69821394E-06-3.05662761E-07
 7 30 3.71121640E-06 2.15746745E-05 6.11434888E-07-3.48418831E-06-2.09375356E-06
 7 31-9.41918359E-05-4.38563775E-06 7.53054948E-06 2.50188622E-05-2.78603135E-05
 7 32 1.05640713E-04-1.86600388E-04-2.84634864E-05 1.26109919E-05 1.75422185E-05
 7 33 9.07330522E-06-5.97563753E-06-2.69821394E-06 3.05662761E-07 3.79592805E-05
 7 34 3.67176165E-04 5.07942193E-05-6.91619731E-04 0.00000000E+00 2.93731326E-03
 7 35-4.66864759E-04 1.06349104E-02 0.00000000E+00-4.33950058E-03-5.29563550E-04
 7 36 2.01908045E-03 0.00000000E+00 8.86158686E-05-1.92980960E-03 9.19244558E-05
 7 37 8.51624962E-05 0.00000000E+00 0.00000000E+00 9.95552833E-01 2.45454452E-02
 7 38 1.36166495E-04-2.96642700E-03 0.00000000E+00-1.18664640E-02-2.11047770E-04
 7 39 4.37689898E-03 0.00000000E+00 1.09893719E-03 1.75754906E-04-1.12426951E-03
 7 40 0.00000000E+00-2.92714182E-03-1.31433412E-03-2.84734221E-03-7.63740870E-05
 7 41 0.00000000E+00 0.00000000E+00
 8  1-3.24621574E-04 3.13736561E-04 4.37755407E-05 9.03082576E-05 0.00000000E+00
 8  2 1.32087450E-03-3.73190759E-05-6.04735514E-04 0.00000000E+00-5.84939089E-03
 8  3 3.43058991E-03 2.15969925E-02 0.00000000E+00-1.49933955E-04-6.27063082E-04
 8  4 1.40478203E-04-7.13711675E-05 0.00000000E+00 0.00000000E+00 1.00982602E-05
 8  5-8.18050901E-05 2.69204366E-05 4.51919373E-05 0.00000000E+00-6.81237952E-04
 8  6 8.12475958E-05-4.72807538E-04 0.00000000E+00 1.10081645E-02 4.07286125E-03
 8  7-3.99551175E-03 0.00000000E+00 1.33725635E-04 4.38930023E-05-5.62028161E-05
 8  8 1.49412183E-04 0.00000000E+00 0.00000000E+00-2.99469736E-04-3.61487510E-04
 8  9 1.38650918E-04-1.91537098E-06 0.00000000E+00 1.77478766E-03 1.01794803E-03
 8 10-3.46475837E-04 0.00000000E+00 8.27449270E-03-1.13427065E-03 1.68862406E-03
 8 11 0.00000000E+00 3.83764805E-04 2.44986750E-05-6.87278184E-05-1.02979245E-05
 8 12 0.00000000E+00 0.00000000E+00-2.49590468E-04 5.16206738E-04 6.64612901E-05
 8 13-5.36508661E-05 0.00000000E+00-3.77273224E-04-1.06734895E-04 9.61564689E-04
 8 14 0.00000000E+00-4.32315443E-03 4.20096258E-03 3.63753239E-03 0.00000000E+00
 8 15-3.78410944E-04-4.32644537E-04 2.35496354E-04 3.27156354E-04 0.00000000E+00
 8 16 0.00000000E+00 9.96039547E-01 2.78583041E-02-1.47534253E-03-3.89164678E-04
 8 17 0.00000000E+00-1.59145532E-02 8.36786007E-04 5.27472793E-04 0.00000000E+00
 8 18-1.89472834E-02-5.69903534E-04-1.42580792E-03 0.00000000E+00-4.65489716E-04
 8 19-8.26394843E-04-1.87869920E-03 1.25573219E-04 0.00000000E+00 0.00000000E+00
 8 20-9.38604199E-05 9.41814198E-04-2.81965556E-03-5.86991122E-05 4.92390502E-05
 8 21 0.00000000E+00-1.03684431E-07 8.98790622E-04 4.50899607E-03 1.84895712E-04
 8 22 5.38486485E-05 0.00000000E+00-7.30301858E-06-1.49477779E-04-1.42696849E-05
 8 23-5.24721777E-05 0.00000000E+00 1.46287729E-04 4.12786338E-05 2.47470320E-04
 8 24 0.00000000E+00 1.02303193E-02-1.98158989E-03-4.23778635E-04 0.00000000E+00
 8 25-1.91246125E-05 1.17962749E-04-3.83311859E-05-5.63121413E-05 0.00000000E+00
 8 26 0.00000000E+00 5.51300673E-05 3.11235111E-04-2.91277167E-06 4.44073496E-05
 8 27-9.66339554E-06-1.08690897E-03 2.51365630E-05-1.86849720E-04 7.48753533E-05
 8 28 2.85154284E-03-6.39904290E-04 1.06355706E-03 1.25693145E-04 2.49652109E-04
 8 29 1.60293452E-04 2.29133499E-04-6.97326749E-07-1.08706417E-05-1.39748672E-05
 8 30 5.51300673E-05 3.11235111E-04-2.91277167E-06 4.44073496E-05 9.66339554E-06
 8 31-1.08690897E-03 2.51365630E-05-1.86849720E-04-7.48753533E-05 2.85154284E-03
 8 32-6.39904290E-04 1.06355706E-03-1.25693145E-04 2.49652109E-04 1.60293452E-04
 8 33 2.29133499E-04-6.97326749E-07 1.08706417E-05 1.39748672E-05-4.98202041E-05
 8 34-1.52147775E-04 5.67529371E-05 2.96245064E-05 0.00000000E+00-1.28204963E-03
 8 35-3.12687888E-04-6.70925352E-04 0.00000000E+00 1.14829093E-03 6.42625580E-04
 8 36-7.48408534E-05 0.00000000E+00 6.41413117E-05 2.56465298E-04-4.75508871E-05
 8 37-6.73273308E-05 0.00000000E+00 0.00000000E+00-2.39586560E-05-1.20992747E-04
 8 38 2.46537990E-06 5.50886257E-05 0.00000000E+00 1.01910150E-03 6.64512178E-05
 8 39-2.94904691E-04 0.00000000E+00-1.00179521E-03-3.32077525E-04 2.48746706E-04
 8 40 0.00000000E+00-3.51199321E-05-8.96229377E-05-2.80198650E-05-7.66436853E-06
 8 41 0.00000000E+00 0.00000000E+00
 9  1-1.30060968E-05-1.66494678E-04-7.98761081E-05-3.98590146E-05-0.00000000E+00
 9  2 5.13852485E-04-7.20037206E-04 1.35508418E-03-0.00000000E+00-2.61484362E-02
 9  3 7.47960714E-03-3.60854876E-03-0.00000000E+00 1.28372751E-04 1.25636544E-05
 9  4-6.16981408E-05-7.95310211E-05-0.00000000E+00-0.00000000E+00-3.19484072E-04
 9  5 2.80310711E-04-9.50471166E-05 1.93975311E-05-0.00000000E+00 6.41165009E-04
 9  6-2.64343183E-04 3.61347651E-04-0.00000000E+00 2.19916577E-02 4.00110911E-03
 9  7 4.36111059E-03-0.00000000E+00-9.73027796E-05-2.15548793E-04 2.05681889E-04
 9  8-6.14191954E-05-0.00000000E+00-0.00000000E+00 9.96016365E-01 2.80194817E-02
 9  9 1.50864063E-03 2.34263397E-04-0.00000000E+00-1.66737036E-02-1.41456492E-03
 9 10 3.28722473E-04-0.00000000E+00-1.78602997E-02-1.62079374E-03-2.85936831E-03
 9 11-0.00000000E+00-7.22475154E-04-9.86073267E-04-1.82151617E-03-8.17159858E-05
 9 12-0.00000000E+00-0.00000000E+00-1.81955449E-04 5.66634271E-04-6.67638413E-05
 9 13-1.55799124E-04-0.00000000E+00 1.03606336E-03-1.53627546E-04 2.17266249E-03
 9 14-0.00000000E+00 1.38053896E-02-4.86428798E-03-9.22085581E-03-0.00000000E+00
 9 15-4.16551586E-04-3.21034633E-04 2.77884022E-04-3.77795148E-04-0.00000000E+00
 9 16-0.00000000E+00 2.74553679E-04-2.42921875E-04-1.37184116E-04 7.05022300E-05
 9 17-0.00000000E+00 3.74355328E-04-3.48811864E-04 2.24250146E-04-0.00000000E+00
 9 18 5.08817701E-03 4.49535856E-04 1.56102429E-03-0.00000000E+00 3.70089382E-04
 9 19-1.03455799E-05-3.89033341E-05-8.58850142E-06-0.00000000E+00-0.00000000E+00
 9 20-3.37025757E-05 1.24192901E-03 2.96089917E-03-1.49395269E-04 2.68366057E-05
 9 21-0.00000000E+00-8.00190692E-05 2.63347537E-04-1.78030045E-03 6.54891267E-05